Version identifier: 22.1.0.0 | 2022-03-09 | 1a383f8ce
CPXPARAM_Threads                                 1
CPXPARAM_MIP_Strategy_VariableSelect             3
CPXPARAM_TimeLimit                               594.80102285999999
1 of 1 MIP starts provided solutions.
MIP start 'm1' defined initial solution with objective 283.0000.
Tried aggregator 1 time.
MIP Presolve eliminated 18 rows and 0 columns.
MIP Presolve modified 7 coefficients.
Reduced MIP has 3002 rows, 6000 columns, and 90011 nonzeros.
Reduced MIP has 6000 binaries, 0 generals, 0 SOSs, and 0 indicators.
Presolve time = 0.06 sec. (48.86 ticks)
Probing time = 0.00 sec. (4.17 ticks)
Tried aggregator 1 time.
Detecting symmetries...
Reduced MIP has 3002 rows, 6000 columns, and 90011 nonzeros.
Reduced MIP has 6000 binaries, 0 generals, 0 SOSs, and 0 indicators.
Presolve time = 0.06 sec. (45.78 ticks)
Probing time = 0.00 sec. (4.17 ticks)
Clique table members: 895.
MIP emphasis: balance optimality and feasibility.
MIP search method: dynamic search.
Parallel mode: none, using 1 thread.
Root relaxation solution time = 5.16 sec. (4946.35 ticks)

        Nodes                                         Cuts/
   Node  Left     Objective  IInf  Best Integer    Best Bound    ItCnt     Gap

*     0+    0                          283.0000     6000.0000              --- 
      0     0      300.0000  1357      283.0000      300.0000    11580    6.01%
*     0+    0                          292.0000      300.0000             2.74%
*     0+    0                          293.0000      300.0000             2.39%
*     0+    0                          296.0000      300.0000             1.35%
      0     0        cutoff            296.0000      300.0000    11580    1.35%
Detecting symmetries...
      0     2      300.0000   112      296.0000      300.0000    11580    1.35%
Elapsed time = 27.76 sec. (27009.67 ticks, tree = 0.01 MB, solutions = 4)
      1     3      300.0000   930      296.0000      300.0000    30328    1.35%
      2     4      300.0000   775      296.0000      300.0000    37913    1.35%
      3     5      300.0000  1211      296.0000      300.0000    49815    1.35%
      4     6      300.0000   816      296.0000      300.0000    50444    1.35%
      5     7      300.0000   812      296.0000      300.0000    50449    1.35%
      6     8      300.0000   814      296.0000      300.0000    50516    1.35%
      7     9      300.0000  1344      296.0000      300.0000    60632    1.35%
      8    10      300.0000   642      296.0000      300.0000    67634    1.35%
      9    11      300.0000   641      296.0000      300.0000    67642    1.35%
     10    12      300.0000   651      296.0000      300.0000    67714    1.35%
Elapsed time = 57.47 sec. (55536.35 ticks, tree = 0.14 MB, solutions = 4)
     11    13      300.0000   744      296.0000      300.0000    78608    1.35%
     13    15      300.0000   689      296.0000      300.0000    87717    1.35%
     15    17      300.0000   641      296.0000      300.0000    87864    1.35%
     17    19      300.0000   646      296.0000      300.0000    93569    1.35%
     19    21      300.0000   616      296.0000      300.0000    93686    1.35%
     20    22      300.0000   679      296.0000      300.0000   101690    1.35%
     21    23      300.0000   790      296.0000      300.0000   112602    1.35%
     23    25      300.0000   667      296.0000      300.0000   114093    1.35%
     26    28      300.0000   664      296.0000      300.0000   114197    1.35%
     29    31      300.0000   818      296.0000      300.0000   127058    1.35%
Elapsed time = 88.94 sec. (85915.10 ticks, tree = 0.60 MB, solutions = 4)
     30    32      300.0000   669      296.0000      300.0000   128044    1.35%
     32    34      300.0000   769      296.0000      300.0000   147070    1.35%
     35    37      300.0000   665      296.0000      300.0000   148091    1.35%
     36    38      300.0000   696      296.0000      300.0000   149945    1.35%
     39    41      300.0000   670      296.0000      300.0000   150183    1.35%
     41    43      300.0000   774      296.0000      300.0000   160100    1.35%
     43    45      300.0000   891      296.0000      300.0000   172215    1.35%
     44    46      300.0000   845      296.0000      300.0000   181226    1.35%
     45    47      300.0000   853      296.0000      300.0000   190295    1.35%
     46    48      300.0000   878      296.0000      300.0000   198862    1.35%
Elapsed time = 123.82 sec. (120018.91 ticks, tree = 1.03 MB, solutions = 4)
     47    49      300.0000  1124      296.0000      300.0000   209412    1.35%
     48    50      300.0000  1065      296.0000      300.0000   224942    1.35%
     50    52      300.0000  1041      296.0000      300.0000   227198    1.35%
     53    55      300.0000  1037      296.0000      300.0000   229281    1.35%
     55    57      300.0000  1028      296.0000      300.0000   230398    1.35%
     58    60      300.0000   984      296.0000      300.0000   231842    1.35%
     59    61      300.0000   985      296.0000      300.0000   234401    1.35%
     60    62      300.0000   984      296.0000      300.0000   234455    1.35%
     62    64      300.0000   984      296.0000      300.0000   236097    1.35%
     65    67      300.0000   980      296.0000      300.0000   236766    1.35%
Elapsed time = 162.70 sec. (156671.38 ticks, tree = 1.47 MB, solutions = 4)
     67    69      300.0000   972      296.0000      300.0000   237639    1.35%
     70    72      300.0000   968      296.0000      300.0000   238134    1.35%
     72    74      300.0000   972      296.0000      300.0000   240195    1.35%
     74    76      300.0000   958      296.0000      300.0000   241546    1.35%
     76    78      300.0000   943      296.0000      300.0000   242698    1.35%
     77    79      300.0000   896      296.0000      300.0000   246229    1.35%
     79    81      300.0000   883      296.0000      300.0000   247586    1.35%
     80    82      300.0000   894      296.0000      300.0000   247829    1.35%
     83    85      300.0000   876      296.0000      300.0000   251218    1.35%
     85    87      300.0000   858      296.0000      300.0000   253187    1.35%
Elapsed time = 199.59 sec. (190600.89 ticks, tree = 1.98 MB, solutions = 4)
     88    90      300.0000   847      296.0000      300.0000   253398    1.35%
     90    92      300.0000   807      296.0000      300.0000   257779    1.35%
     93    95      300.0000   796      296.0000      300.0000   258253    1.35%
     96    98      300.0000   745      296.0000      300.0000   261786    1.35%
     98   100      300.0000   717      296.0000      300.0000   263487    1.35%
    100   102      300.0000   735      296.0000      300.0000   265113    1.35%
    103   105      300.0000   701      296.0000      300.0000   267806    1.35%
    105   107      300.0000   545      296.0000      300.0000   275754    1.35%
    108   110      300.0000   485      296.0000      300.0000   277888    1.35%
    111   113      300.0000   471      296.0000      300.0000   284197    1.35%
Elapsed time = 219.76 sec. (209407.64 ticks, tree = 2.65 MB, solutions = 4)
    114   116      300.0000   439      296.0000      300.0000   286883    1.35%
    117   119      300.0000   480      296.0000      300.0000   295052    1.35%
    120   122      299.0000   435      296.0000      300.0000   301313    1.35%
    124   126      300.0000   396      296.0000      300.0000   302304    1.35%
    127   129      300.0000   335      296.0000      300.0000   306610    1.35%
    131   133      300.0000   312      296.0000      300.0000   309621    1.35%
    134   136      300.0000   307      296.0000      300.0000   314895    1.35%
    136   138      300.0000   500      296.0000      300.0000   319205    1.35%
    140   142      300.0000   262      296.0000      300.0000   322108    1.35%
    143   145      300.0000   302      296.0000      300.0000   330580    1.35%
Elapsed time = 234.17 sec. (222551.79 ticks, tree = 3.45 MB, solutions = 4)
    146   148      300.0000   222      296.0000      300.0000   334097    1.35%
    147   149      300.0000   194      296.0000      300.0000   339779    1.35%
    150   152      300.0000   202      296.0000      300.0000   342786    1.35%
    154   156      300.0000   174      296.0000      300.0000   345649    1.35%
    158   160      300.0000   160      296.0000      300.0000   349282    1.35%
    161   163      300.0000   165      296.0000      300.0000   357254    1.35%
    166   168      300.0000   148      296.0000      300.0000   358694    1.35%
    168   170      300.0000   138      296.0000      300.0000   364066    1.35%
    171   173      300.0000   152      296.0000      300.0000   367085    1.35%
    175   177      300.0000   106      296.0000      300.0000   369949    1.35%
Elapsed time = 246.62 sec. (233696.02 ticks, tree = 4.29 MB, solutions = 4)
    178   180      300.0000    60      296.0000      300.0000   378555    1.35%
    180   182      300.0000    60      296.0000      300.0000   385929    1.35%
    182   184      300.0000    60      296.0000      300.0000   390700    1.35%
    184   186      300.0000    94      296.0000      300.0000   395067    1.35%
    185   187      300.0000    87      296.0000      300.0000   399688    1.35%
    187   189      300.0000    82      296.0000      300.0000   404812    1.35%
    189   191      300.0000    45      296.0000      300.0000   410176    1.35%
    192   194      300.0000    75      296.0000      300.0000   413768    1.35%
    196   198      300.0000    30      296.0000      300.0000   415755    1.35%
    199   201      300.0000    45      296.0000      300.0000   419175    1.35%
Elapsed time = 259.53 sec. (245226.10 ticks, tree = 4.88 MB, solutions = 4)
    201   203      300.0000    10      296.0000      300.0000   423735    1.35%
*   203     1      integral     0      300.0000      300.0000   425042    0.00%

Root node processing (before b&c):
  Real time             =   27.73 sec. (26975.36 ticks)
Sequential b&c:
  Real time             =  233.34 sec. (219651.53 ticks)
                          ------------
Total (root+branch&cut) =  261.07 sec. (246626.89 ticks)
Primal:	300
Dual:	300
Status:	Optimal
Time:	261.05
Sequence:
	1
	6
	0
	2
	11
	6
	6
	0
	11
	2
	5
	6
	16
	11
	0
	6
	14
	17
	7
	8
	5
	1
	2
	9
	0
	1
	7
	0
	5
	16
	1
	9
	0
	7
	1
	12
	18
	16
	11
	6
	15
	13
	17
	7
	6
	0
	1
	2
	18
	6
	11
	15
	2
	4
	1
	18
	10
	8
	19
	14
	13
	12
	19
	8
	14
	18
	1
	0
	2
	6
	11
	18
	15
	2
	1
	4
	9
	10
	3
	15
	4
	13
	11
	15
	6
	16
	13
	19
	12
	5
	16
	19
	13
	5
	12
	13
	19
	8
	14
	10
	19
	9
	16
	6
	11
	12
	4
	0
	1
	13
	15
	18
	11
	6
	16
	15
	11
	4
	14
	0
	1
	0
	7
	6
	11
	15
	16
	4
	11
	18
	15
	16
	1
	18
	18
	15
	0
	3
	6
	7
	12
	3
	8
	14
	9
	19
	10
	8
	14
	19
	4
	12
	2
	1
	4
	18
	15
	2
	1
	4
	9
	10
	3
	8
	6
	7
	0
	1
	0
	9
	14
	19
	10
	8
	18
	3
	14
	12
	8
	3
	7
	6
	12
	11
	2
	18
	6
	17
	14
	2
	4
	19
	10
	6
	16
	19
	9
	10
	14
	17
	4
	7
	12
	3
	12
	7
	4
	17
	14
	10
	9
	19
	8
	14
	10
	19
	9
	0
	14
	17
	6
	18
	2
	1
	8
	5
	7
	17
	14
	8
	14
	19
	8
	14
	16
	19
	5
	2
	6
	17
	7
	5
	8
	1
	2
	18
	6
	17
	5
	2
	18
	3
	12
	13
	15
	3
	18
	12
	13
	19
	10
	18
	12
	3
	13
	15
	18
	3
	12
	7
	12
	3
	9
	16
	5
	3
	15
	13
	8
	3
	6
	12
	7
	17
	4
	7
	14
	17
	12
	7
	18
	3
	12
	12
	7
	3
	18
	15
	14
	17
